100	102160

239 239
992 992
952 952
145 145
223 223
369 369
254 254
943 943
642 642
519 519
26 26
517 517
415 415
570 570
657 657
702 702
870 870
668 668
243 243
665 665
746 746
735 735
871 871
969 969
100 100
873 873
931 931
823 823
318 318
140 140
113 113
531 531
509 509
634 634
243 243
476 476
505 505
61 61
555 555
226 226
71 71
155 155
578 578
320 320
633 633
881 881
670 670
982 982
187 187
404 404
893 893
747 747
993 993
87 87
736 736
645 645
530 530
724 724
20 20
253 253
249 249
951 951
439 439
92 92
178 178
795 795
521 521
286 286
479 479
44 44
15 15
454 454
176 176
565 565
197 197
979 979
614 614
679 679
838 838
460 460
273 273
857 857
758 758
420 420
913 913
236 236
41 41
744 744
794 794
524 524
886 886
10 10
361 361
837 837
184 184
793 793
516 516
505 505
411 411
527 527
